(declare-rel fail ())
(declare-rel inv2 (Int Int Int Int Int))
(declare-var A Int)
(declare-var B Int)
(declare-var C Int)
(declare-var D Int)
(declare-var E Int)
(declare-var F Int)
(declare-var G Int)
(rule (=> (and (= F 0) (= D C) (= C A) (= A B) (> B 0) (>= 5000 B)) (inv2 F D C B A)))
(rule (let ((a!1 (and (inv2 F D C B A)
                (= E (+ F 1))
                (= G (ite (>= F C) (+ D 1) (- D 1))))))
  (=> a!1 (inv2 E G C B A))))
(rule (=> (and (inv2 F D C B A) (= F (* 2 C)) (not (= D C))) fail))
(query fail)

